%chk=H2_0p25.chk
# hf/3-21g geom=connectivity

Title Card Required

0 1
 H                  2.25990312    0.87296498   -0.04040753
 H                  2.00990312    0.87296498   -0.04040753

 1 2 1.0
 2

