%chk=H2_0p75.chk
# hf/3-21g

Title Card Required

0 1
 H                 -3.42610455    2.78112446    0.00000000
 H                 -4.17610455    2.78112446    0.00000000

